c Reduced graph for p42 generated by Cyril Grelier
p edge 138 1186
e 1 2
e 1 3
e 1 4
e 1 5
e 1 8
e 1 9
e 1 10
e 1 11
e 1 13
e 1 17
e 1 18
e 1 19
e 1 20
e 1 22
e 1 26
e 1 28
e 1 31
e 1 36
e 1 37
e 1 43
e 1 61
e 1 63
e 1 70
e 1 86
e 2 3
e 2 4
e 2 5
e 2 8
e 2 9
e 2 10
e 2 11
e 2 17
e 2 18
e 2 19
e 2 25
e 2 28
e 2 30
e 2 35
e 2 38
e 2 41
e 2 51
e 2 52
e 2 60
e 2 63
e 2 95
e 2 112
e 3 4
e 3 5
e 3 8
e 3 9
e 3 10
e 3 11
e 3 17
e 3 18
e 3 19
e 3 28
e 3 32
e 3 39
e 3 49
e 3 53
e 3 63
e 3 66
e 3 74
e 3 75
e 3 87
e 3 115
e 4 5
e 4 8
e 4 9
e 4 10
e 4 11
e 4 17
e 4 18
e 4 19
e 4 28
e 4 33
e 4 40
e 4 44
e 4 54
e 4 58
e 4 63
e 4 67
e 4 84
e 4 88
e 4 110
e 5 8
e 5 9
e 5 10
e 5 11
e 5 17
e 5 18
e 5 19
e 5 28
e 5 34
e 5 45
e 5 50
e 5 59
e 5 63
e 5 68
e 5 76
e 5 85
e 5 89
e 5 111
e 6 7
e 6 12
e 6 13
e 6 14
e 6 15
e 6 16
e 6 21
e 6 23
e 6 24
e 6 27
e 6 29
e 6 32
e 6 33
e 6 34
e 6 42
e 6 46
e 6 47
e 6 48
e 6 62
e 6 69
e 6 94
e 6 124
e 7 12
e 7 14
e 7 15
e 7 16
e 7 21
e 7 23
e 7 24
e 7 25
e 7 27
e 7 29
e 7 39
e 7 40
e 7 42
e 7 55
e 7 56
e 7 57
e 7 62
e 7 81
e 7 82
e 7 106
e 7 128
e 8 9
e 8 10
e 8 11
e 8 17
e 8 18
e 8 19
e 8 28
e 8 46
e 8 55
e 8 63
e 8 71
e 8 77
e 8 92
e 8 98
e 8 101
e 8 125
e 9 10
e 9 11
e 9 17
e 9 18
e 9 19
e 9 28
e 9 47
e 9 63
e 9 72
e 9 78
e 9 93
e 9 99
e 9 102
e 9 126
e 9 131
e 10 11
e 10 17
e 10 18
e 10 19
e 10 28
e 10 56
e 10 63
e 10 64
e 10 73
e 10 79
e 10 100
e 10 103
e 10 127
e 10 132
e 11 17
e 11 18
e 11 19
e 11 28
e 11 48
e 11 57
e 11 63
e 11 65
e 11 80
e 11 83
e 11 109
e 11 113
e 11 122
e 12 14
e 12 15
e 12 16
e 12 20
e 12 21
e 12 23
e 12 24
e 12 27
e 12 29
e 12 30
e 12 42
e 12 44
e 12 45
e 12 62
e 12 64
e 12 65
e 12 90
e 12 91
e 12 134
e 13 20
e 13 22
e 13 26
e 13 31
e 13 32
e 13 33
e 13 34
e 13 36
e 13 37
e 13 43
e 13 46
e 13 47
e 13 48
e 13 61
e 13 69
e 13 70
e 13 86
e 13 94
e 13 124
e 14 15
e 14 16
e 14 21
e 14 22
e 14 23
e 14 24
e 14 27
e 14 29
e 14 35
e 14 42
e 14 49
e 14 50
e 14 62
e 14 71
e 14 72
e 14 73
e 14 96
e 14 97
e 15 16
e 15 21
e 15 23
e 15 24
e 15 27
e 15 29
e 15 38
e 15 42
e 15 53
e 15 54
e 15 62
e 15 77
e 15 78
e 15 79
e 15 80
e 15 104
e 15 105
e 16 21
e 16 23
e 16 24
e 16 26
e 16 27
e 16 29
e 16 41
e 16 42
e 16 58
e 16 59
e 16 62
e 16 83
e 16 107
e 16 108
e 16 119
e 17 18
e 17 19
e 17 28
e 17 63
e 17 81
e 17 96
e 17 104
e 17 116
e 17 118
e 17 135
e 17 137
e 18 19
e 18 28
e 18 63
e 18 82
e 18 90
e 18 97
e 18 105
e 18 107
e 18 117
e 18 120
e 19 28
e 19 63
e 19 69
e 19 91
e 19 108
e 19 114
e 19 121
e 19 123
e 19 130
e 20 22
e 20 26
e 20 30
e 20 31
e 20 36
e 20 37
e 20 43
e 20 44
e 20 45
e 20 61
e 20 64
e 20 65
e 20 70
e 20 86
e 20 90
e 20 91
e 20 134
e 21 23
e 21 24
e 21 27
e 21 29
e 21 31
e 21 42
e 21 62
e 21 66
e 21 67
e 21 68
e 21 92
e 21 93
e 21 114
e 21 138
e 22 26
e 22 31
e 22 35
e 22 36
e 22 37
e 22 43
e 22 49
e 22 50
e 22 61
e 22 70
e 22 71
e 22 72
e 22 73
e 22 86
e 22 96
e 22 97
e 23 24
e 23 27
e 23 29
e 23 36
e 23 42
e 23 51
e 23 62
e 23 74
e 23 98
e 23 99
e 23 100
e 23 116
e 23 117
e 24 27
e 24 29
e 24 37
e 24 42
e 24 52
e 24 62
e 24 75
e 24 76
e 24 101
e 24 102
e 24 103
e 24 118
e 25 30
e 25 35
e 25 38
e 25 39
e 25 40
e 25 41
e 25 51
e 25 52
e 25 55
e 25 56
e 25 57
e 25 60
e 25 81
e 25 82
e 25 95
e 25 106
e 25 112
e 25 128
e 26 31
e 26 36
e 26 37
e 26 41
e 26 43
e 26 58
e 26 59
e 26 61
e 26 70
e 26 83
e 26 86
e 26 107
e 26 108
e 26 119
e 27 29
e 27 42
e 27 60
e 27 62
e 27 84
e 27 85
e 27 109
e 27 120
e 27 121
e 27 129
e 28 63
e 28 94
e 28 106
e 28 119
e 28 129
e 28 133
e 28 136
e 29 42
e 29 43
e 29 62
e 29 87
e 29 88
e 29 89
e 29 113
e 29 123
e 29 133
e 30 35
e 30 38
e 30 41
e 30 44
e 30 45
e 30 51
e 30 52
e 30 60
e 30 64
e 30 65
e 30 90
e 30 91
e 30 95
e 30 112
e 30 134
e 31 36
e 31 37
e 31 43
e 31 61
e 31 66
e 31 67
e 31 68
e 31 70
e 31 86
e 31 92
e 31 93
e 31 114
e 31 138
e 32 33
e 32 34
e 32 39
e 32 46
e 32 47
e 32 48
e 32 49
e 32 53
e 32 66
e 32 69
e 32 74
e 32 75
e 32 87
e 32 94
e 32 115
e 32 124
e 33 34
e 33 40
e 33 44
e 33 46
e 33 47
e 33 48
e 33 54
e 33 58
e 33 67
e 33 69
e 33 84
e 33 88
e 33 94
e 33 110
e 33 124
e 34 45
e 34 46
e 34 47
e 34 48
e 34 50
e 34 59
e 34 68
e 34 69
e 34 76
e 34 85
e 34 89
e 34 94
e 34 111
e 34 124
e 35 38
e 35 41
e 35 49
e 35 50
e 35 51
e 35 52
e 35 60
e 35 71
e 35 72
e 35 73
e 35 95
e 35 96
e 35 97
e 35 112
e 36 37
e 36 43
e 36 51
e 36 61
e 36 70
e 36 74
e 36 86
e 36 98
e 36 99
e 36 100
e 36 116
e 36 117
e 37 43
e 37 52
e 37 61
e 37 70
e 37 75
e 37 76
e 37 86
e 37 101
e 37 102
e 37 103
e 37 118
e 38 41
e 38 51
e 38 52
e 38 53
e 38 54
e 38 60
e 38 77
e 38 78
e 38 79
e 38 80
e 38 95
e 38 104
e 38 105
e 38 112
e 39 40
e 39 49
e 39 53
e 39 55
e 39 56
e 39 57
e 39 66
e 39 74
e 39 75
e 39 81
e 39 82
e 39 87
e 39 106
e 39 115
e 39 128
e 40 44
e 40 54
e 40 55
e 40 56
e 40 57
e 40 58
e 40 67
e 40 81
e 40 82
e 40 84
e 40 88
e 40 106
e 40 110
e 40 128
e 41 51
e 41 52
e 41 58
e 41 59
e 41 60
e 41 83
e 41 95
e 41 107
e 41 108
e 41 112
e 41 119
e 42 61
e 42 62
e 42 110
e 42 111
e 42 122
e 42 130
e 42 136
e 43 61
e 43 70
e 43 86
e 43 87
e 43 88
e 43 89
e 43 113
e 43 123
e 43 133
e 44 45
e 44 54
e 44 58
e 44 64
e 44 65
e 44 67
e 44 84
e 44 88
e 44 90
e 44 91
e 44 110
e 44 134
e 45 50
e 45 59
e 45 64
e 45 65
e 45 68
e 45 76
e 45 85
e 45 89
e 45 90
e 45 91
e 45 111
e 45 134
e 46 47
e 46 48
e 46 55
e 46 69
e 46 71
e 46 77
e 46 92
e 46 94
e 46 98
e 46 101
e 46 124
e 46 125
e 47 48
e 47 69
e 47 72
e 47 78
e 47 93
e 47 94
e 47 99
e 47 102
e 47 124
e 47 126
e 47 131
e 48 57
e 48 65
e 48 69
e 48 80
e 48 83
e 48 94
e 48 109
e 48 113
e 48 122
e 48 124
e 49 50
e 49 53
e 49 66
e 49 71
e 49 72
e 49 73
e 49 74
e 49 75
e 49 87
e 49 96
e 49 97
e 49 115
e 50 59
e 50 68
e 50 71
e 50 72
e 50 73
e 50 76
e 50 85
e 50 89
e 50 96
e 50 97
e 50 111
e 51 52
e 51 60
e 51 74
e 51 95
e 51 98
e 51 99
e 51 100
e 51 112
e 51 116
e 51 117
e 52 60
e 52 75
e 52 76
e 52 95
e 52 101
e 52 102
e 52 103
e 52 112
e 52 118
e 53 54
e 53 66
e 53 74
e 53 75
e 53 77
e 53 78
e 53 79
e 53 80
e 53 87
e 53 104
e 53 105
e 53 115
e 54 58
e 54 67
e 54 77
e 54 78
e 54 79
e 54 80
e 54 84
e 54 88
e 54 104
e 54 105
e 54 110
e 55 56
e 55 57
e 55 71
e 55 77
e 55 81
e 55 82
e 55 92
e 55 98
e 55 101
e 55 106
e 55 125
e 55 128
e 56 57
e 56 64
e 56 73
e 56 79
e 56 81
e 56 82
e 56 100
e 56 103
e 56 106
e 56 127
e 56 128
e 56 132
e 57 65
e 57 80
e 57 81
e 57 82
e 57 83
e 57 106
e 57 109
e 57 113
e 57 122
e 57 128
e 58 59
e 58 67
e 58 83
e 58 84
e 58 88
e 58 107
e 58 108
e 58 110
e 58 119
e 59 68
e 59 76
e 59 83
e 59 85
e 59 89
e 59 107
e 59 108
e 59 111
e 59 119
e 60 84
e 60 85
e 60 95
e 60 109
e 60 112
e 60 120
e 60 121
e 60 129
e 61 70
e 61 86
e 61 110
e 61 111
e 61 122
e 61 130
e 61 136
e 62 86
e 62 112
e 62 131
e 62 132
e 62 137
e 63 124
e 63 128
e 63 134
e 63 138
e 64 65
e 64 73
e 64 79
e 64 90
e 64 91
e 64 100
e 64 103
e 64 127
e 64 132
e 64 134
e 65 80
e 65 83
e 65 90
e 65 91
e 65 109
e 65 113
e 65 122
e 65 134
e 66 67
e 66 68
e 66 74
e 66 75
e 66 87
e 66 92
e 66 93
e 66 114
e 66 115
e 66 138
e 67 68
e 67 84
e 67 88
e 67 92
e 67 93
e 67 110
e 67 114
e 67 138
e 68 76
e 68 85
e 68 89
e 68 92
e 68 93
e 68 111
e 68 114
e 68 138
e 69 91
e 69 94
e 69 108
e 69 114
e 69 121
e 69 123
e 69 124
e 69 130
e 70 86
e 70 95
e 70 115
e 70 125
e 70 126
e 70 127
e 70 135
e 71 72
e 71 73
e 71 77
e 71 92
e 71 96
e 71 97
e 71 98
e 71 101
e 71 125
e 72 73
e 72 78
e 72 93
e 72 96
e 72 97
e 72 99
e 72 102
e 72 126
e 72 131
e 73 79
e 73 96
e 73 97
e 73 100
e 73 103
e 73 127
e 73 132
e 74 75
e 74 87
e 74 98
e 74 99
e 74 100
e 74 115
e 74 116
e 74 117
e 75 76
e 75 87
e 75 101
e 75 102
e 75 103
e 75 115
e 75 118
e 76 85
e 76 89
e 76 101
e 76 102
e 76 103
e 76 111
e 76 118
e 77 78
e 77 79
e 77 80
e 77 92
e 77 98
e 77 101
e 77 104
e 77 105
e 77 125
e 78 79
e 78 80
e 78 93
e 78 99
e 78 102
e 78 104
e 78 105
e 78 126
e 78 131
e 79 80
e 79 100
e 79 103
e 79 104
e 79 105
e 79 127
e 79 132
e 80 83
e 80 104
e 80 105
e 80 109
e 80 113
e 80 122
e 81 82
e 81 96
e 81 104
e 81 106
e 81 116
e 81 118
e 81 128
e 81 135
e 81 137
e 82 90
e 82 97
e 82 105
e 82 106
e 82 107
e 82 117
e 82 120
e 82 128
e 83 107
e 83 108
e 83 109
e 83 113
e 83 119
e 83 122
e 84 85
e 84 88
e 84 109
e 84 110
e 84 120
e 84 121
e 84 129
e 85 89
e 85 109
e 85 111
e 85 120
e 85 121
e 85 129
e 86 112
e 86 131
e 86 132
e 86 137
e 87 88
e 87 89
e 87 113
e 87 115
e 87 123
e 87 133
e 88 89
e 88 110
e 88 113
e 88 123
e 88 133
e 89 111
e 89 113
e 89 123
e 89 133
e 90 91
e 90 97
e 90 105
e 90 107
e 90 117
e 90 120
e 90 134
e 91 108
e 91 114
e 91 121
e 91 123
e 91 130
e 91 134
e 92 93
e 92 98
e 92 101
e 92 114
e 92 125
e 92 138
e 93 99
e 93 102
e 93 114
e 93 126
e 93 131
e 93 138
e 94 106
e 94 119
e 94 124
e 94 129
e 94 133
e 94 136
e 95 112
e 95 115
e 95 125
e 95 126
e 95 127
e 95 135
e 96 97
e 96 104
e 96 116
e 96 118
e 96 135
e 96 137
e 97 105
e 97 107
e 97 117
e 97 120
e 98 99
e 98 100
e 98 101
e 98 116
e 98 117
e 98 125
e 99 100
e 99 102
e 99 116
e 99 117
e 99 126
e 99 131
e 100 103
e 100 116
e 100 117
e 100 127
e 100 132
e 101 102
e 101 103
e 101 118
e 101 125
e 102 103
e 102 118
e 102 126
e 102 131
e 103 118
e 103 127
e 103 132
e 104 105
e 104 116
e 104 118
e 104 135
e 104 137
e 105 107
e 105 117
e 105 120
e 106 119
e 106 128
e 106 129
e 106 133
e 106 136
e 107 108
e 107 117
e 107 119
e 107 120
e 108 114
e 108 119
e 108 121
e 108 123
e 108 130
e 109 113
e 109 120
e 109 121
e 109 122
e 109 129
e 110 111
e 110 122
e 110 130
e 110 136
e 111 122
e 111 130
e 111 136
e 112 131
e 112 132
e 112 137
e 113 122
e 113 123
e 113 133
e 114 121
e 114 123
e 114 130
e 114 138
e 115 125
e 115 126
e 115 127
e 115 135
e 116 117
e 116 118
e 116 135
e 116 137
e 117 120
e 118 135
e 118 137
e 119 129
e 119 133
e 119 136
e 120 121
e 120 129
e 121 123
e 121 129
e 121 130
e 122 130
e 122 136
e 123 130
e 123 133
e 124 128
e 124 134
e 124 138
e 125 126
e 125 127
e 125 135
e 126 127
e 126 131
e 126 135
e 127 132
e 127 135
e 128 134
e 128 138
e 129 133
e 129 136
e 130 136
e 131 132
e 131 137
e 132 137
e 133 136
e 134 138
e 135 137
